--- Job demowoaz_LiST_4_29_2020.gms Start 05/26/20 17:13:29 30.1.0 re01a340 WEX-WEI x86 64bit/MS Windows
--- GAMS Parameters defined
    Input Z:\home\lordflaron\Documents\minimod\Optimization Work\demewoz_lives_saved\data_files\justin_data\demowoaz_LiST_4_29_2020.gms
    PageSize 0
    ScrDir Z:\home\lordflaron\Documents\minimod\Optimization Work\demewoz_lives_saved\data_files\justin_data\225c\
    SysDir C:\GAMS\win64\30.1\
    LogOption 3
    ErrMsg 1
    ErrorLog 99
    IDE 1
    LstTitleLeftAligned 1
GAMS 30.1.0   Copyright (C) 1987-2020 GAMS Development. All rights reserved
Licensee: Small MUD - 5 User License                     G190305:1227AO-WIN
          University of California, Davis, Agricultural and Resource DC9668
--- Starting compilation
--- demowoaz_LiST_4_29_2020.gms(40) 3 Mb
--- GDXin=Z:\home\lordflaron\Documents\minimod\Optimization Work\demewoz_lives_saved\data_files\justin_data\Cameroon_deathsaverted.gdx
--- demowoaz_LiST_4_29_2020.gms(47) 3 Mb
--- GDXin=Z:\home\lordflaron\Documents\minimod\Optimization Work\demewoz_lives_saved\data_files\justin_data\Cameroon_deathsavertedhigh.gdx
--- demowoaz_LiST_4_29_2020.gms(54) 3 Mb
--- GDXin=Z:\home\lordflaron\Documents\minimod\Optimization Work\demewoz_lives_saved\data_files\justin_data\Cameroon_deathsavertedcost.gdx
--- demowoaz_LiST_4_29_2020.gms(61) 3 Mb
--- GDXin=Z:\home\lordflaron\Documents\minimod\Optimization Work\demewoz_lives_saved\data_files\justin_data\Cameroon_folate.gdx
--- demowoaz_LiST_4_29_2020.gms(441) 3 Mb
--- Starting execution: elapsed 0:00:00.014
--- demowoaz_LiST_4_29_2020.gms(341) 4 Mb
--- Generating MINLP model nutrition
--- demowoaz_LiST_4_29_2020.gms(342) 8 Mb
---   4,137 rows  6,752 columns  18,093 non-zeroes
---   0 nl-code  0 nl-non-zeroes
---   3,300 discrete-columns
--- demowoaz_LiST_4_29_2020.gms(342) 6 Mb
--- Executing BONMIN: elapsed 0:00:00.068
COIN-OR Bonmin   30.1.0 re01a340 Released Jan 10, 2020 WEI x86 64bit/MS Window
COIN-OR Bonmin (Bonmin Library 1.8)
written by P. Bonami.
******************************************************************************
This program contains Ipopt, a library for large-scale nonlinear optimization.
 Ipopt is released as open source code under the Eclipse Public License (EPL).
         For more information visit http://projects.coin-or.org/Ipopt
******************************************************************************
This is Ipopt version 3.12, running with linear solver mumps.
Number of nonzeros in equality constraint Jacobian...:    13141
Number of nonzeros in inequality constraint Jacobian.:     3301
Number of nonzeros in Lagrangian Hessian.............:        0
Total number of variables............................:     6751
                     variables with only lower bounds:        0
                variables with lower and upper bounds:     3300
                     variables with only upper bounds:        0
Total number of equality constraints.................:     4075
Total number of inequality constraints...............:       61
        inequality constraints with only lower bounds:        1
   inequality constraints with lower and upper bounds:        0
        inequality constraints with only upper bounds:       60
iter    objective    inf_pr   inf_du lg(mu)  ||d||  lg(rg) alpha_du alpha_pr  ls
   0  0.0000000e+00 3.18e+04 1.00e+00   0.0 0.00e+00    -  0.00e+00 0.00e+00   0
MUMPS returned INFO(1) = -9 and requires more memory, reallocating.  Attempt 1
  Increasing icntl[13] from 1000 to 2000.
MUMPS returned INFO(1) = -9 and requires more memory, reallocating.  Attempt 2
  Increasing icntl[13] from 2000 to 4000.
   2 -3.1799503e+06 3.18e+04 1.54e+00  -0.3 1.25e+10    -  2.13e-07 9.61e-07f  1
   7 -7.7495744e+06 3.18e+04 3.61e+00  -0.3 1.47e+10    -  2.33e-06 1.73e-06f  1
  16 -8.8999314e+06 3.18e+04 1.99e+01  -0.3 5.22e+09    -  5.02e-06 3.83e-06f  1
  26 -8.4151493e+06 3.02e+04 2.34e+04  -0.0 1.64e+07    -  3.33e-03 1.25e-02h  1
MUMPS returned INFO(1) = -9 and requires more memory, reallocating.  Attempt 1
  Increasing icntl[13] from 4000 to 8000.
  36 -1.1198127e+07 1.21e+05 1.01e+00  -0.3 8.66e+10    -  9.68e-07 1.12e-06f  1
  38 -2.2932006e+07 1.21e+05 1.56e+00  -0.3 5.58e+10    -  1.26e-06 1.47e-06f  1
  42 -3.6046230e+07 1.21e+05 3.80e+00  -0.3 8.81e+09    -  6.36e-06 5.66e-06f  1
  49 -4.0008701e+07 1.21e+05 6.60e+01  -0.3 1.96e+09    -  4.09e-05 1.09e-05f  1
  59 -4.0527720e+07 1.20e+05 1.10e+04  -0.3 4.51e+06    -  5.68e-03 1.92e-03h  1
iter    objective    inf_pr   inf_du lg(mu)  ||d||  lg(rg) alpha_du alpha_pr  ls
  69 -3.6538081e+07 1.10e+05 2.34e+05  -0.2 1.11e+07    -  6.40e-04 5.12e-04h  1
  78 -3.6303628e+07 1.09e+05 2.34e+05  -0.2 1.64e+07    -  5.96e-04 2.18e-04h  1
  91 -3.6378036e+07 1.10e+05 3.25e+00  -0.3 4.75e+09    -  2.28e-06 5.33e-07f  1
 100 -3.6753422e+07 1.10e+05 1.17e+01  -0.3 4.05e+08    -  4.17e-05 1.57e-05f  1
 111r-3.6766914e+07 1.10e+05 9.99e+02   0.6 5.53e+04    -  2.81e-05 6.19e-05f  1
 123r-3.6768657e+07 1.10e+05 1.61e+04   0.6 8.89e+05    -  7.67e-02 3.67e-04f  1
 138r-3.3208939e+07 1.08e+05 6.67e+03   0.2 2.44e+03    -  6.19e-01 4.27e-02f  1
 153r-2.4153616e+07 1.01e+05 1.97e+04  -0.7 6.09e+03    -  3.24e-01 6.50e-02f  1
 165r-1.6954291e+07 9.57e+04 2.02e+04  -1.1 7.36e+03    -  3.53e-01 6.35e-02f  1
 176r-9.2281401e+06 8.98e+04 1.35e+04  -1.3 8.11e+03    -  1.87e-01 8.43e-02f  1
iter    objective    inf_pr   inf_du lg(mu)  ||d||  lg(rg) alpha_du alpha_pr  ls
 184r-3.9548723e+06 8.54e+04 1.03e+04  -1.7 3.13e+03    -  1.00e+00 1.46e-01f  1
 194r 2.0017215e+06 7.97e+04 9.69e+03  -1.7 2.07e+04    -  2.14e-01 5.41e-02f  1
 204r 7.4372638e+06 7.32e+04 4.68e+03  -1.8 2.38e+04    -  3.67e-02 3.05e-02f  1
 214r 1.1026598e+07 6.79e+04 4.66e+03  -2.3 2.18e+03    -  1.00e+00 1.87e-01f  1
 224r 1.4321262e+07 6.20e+04 1.12e+04  -2.1 7.29e+04    -  1.17e-01 1.05e-02f  1
 234r 1.7903437e+07 5.43e+04 2.08e+04  -2.2 5.38e+04    -  3.07e-01 1.36e-02f  1
 244r 2.0142689e+07 4.81e+04 1.69e+04  -1.9 1.08e+04    -  4.33e-02 3.64e-12f 39
 248r 2.0142689e+07 4.81e+04 1.39e+04  -2.0 1.16e+04    -  1.56e-02 1.11e-16f 54
 253r 2.0142689e+07 4.81e+04 8.90e+03  -2.0 1.16e+04    -  1.01e-01 5.55e-17f 55
 259r 2.0142689e+07 4.81e+04 7.82e+03  -2.0 1.16e+04    -  8.94e-04 2.78e-17f 56
iter    objective    inf_pr   inf_du lg(mu)  ||d||  lg(rg) alpha_du alpha_pr  ls
 264r 2.0142689e+07 4.81e+04 7.38e+03  -2.0 1.20e+04    -  1.06e-03 2.78e-17f 56
 271r 2.0142689e+07 4.81e+04 7.27e+03  -2.0 6.35e+03    -  9.15e-04 1.39e-17f 56
 275r 2.0142689e+07 4.81e+04 7.15e+03  -2.0 1.20e+04    -  9.04e-04 1.39e-17f 57
 279r 2.0142689e+07 4.81e+04 7.03e+03  -2.0 1.20e+04    -  9.04e-04 1.39e-17f 57
 285r 2.0142689e+07 4.81e+04 6.94e+03  -2.0 1.21e+04    -  1.32e-03 1.39e-17f 57
 289r 2.0142689e+07 4.81e+04 6.82e+03  -2.0 1.21e+04    -  1.32e-03 5.42e-20f 65
 293r 2.0142689e+07 4.81e+04 6.71e+03  -2.0 1.21e+04    -  1.32e-03 1.36e-20f 67
 299r 2.0142689e+07 4.81e+04 6.63e+03  -2.0 1.20e+04    -  9.04e-04 2.71e-20f 66
 304r 2.0142689e+07 4.81e+04 6.48e+03  -2.0 1.21e+04    -  1.32e-03 1.36e-20f 67
 310r 2.0142689e+07 4.81e+04 6.40e+03  -2.0 7.20e+03    -  9.04e-04 2.71e-20f 65
iter    objective    inf_pr   inf_du lg(mu)  ||d||  lg(rg) alpha_du alpha_pr  ls
 314r 2.0142689e+07 4.81e+04 6.28e+03  -2.0 1.20e+04    -  9.04e-04 2.71e-20f 66
 318r 2.0142689e+07 4.81e+04 6.17e+03  -2.0 1.20e+04    -  9.04e-04 2.71e-20f 66
 324r 2.0142689e+07 4.81e+04 6.08e+03  -2.0 1.21e+04    -  1.32e-03 1.36e-20f 67
 328r 2.0142689e+07 4.81e+04 5.96e+03  -2.0 1.21e+04    -  1.32e-03 1.36e-20f 67
 332r 2.0142689e+07 4.81e+04 5.85e+03  -2.0 1.21e+04    -  1.32e-03 1.36e-20f 67
 338r 2.0142689e+07 4.81e+04 5.77e+03  -2.0 1.20e+04    -  9.04e-04 2.71e-20f 66
 342r 2.0142689e+07 4.81e+04 5.66e+03  -2.0 1.20e+04    -  9.04e-04 2.71e-20f 66
 347r 1.6229565e+07 5.96e+04 2.37e+04  -2.0 5.13e+03    -  8.80e-02 8.69e-01w  1
 352r 2.0142689e+07 4.81e+04 5.46e+03  -2.0 1.21e+04    -  1.32e-03 1.36e-20f 67
 356r 2.0142689e+07 4.81e+04 5.35e+03  -2.0 1.21e+04    -  1.32e-03 1.36e-20f 67
iter    objective    inf_pr   inf_du lg(mu)  ||d||  lg(rg) alpha_du alpha_pr  ls
 361r 1.6157057e+07 5.96e+04 1.95e+04  -2.0 6.37e+03    -  1.59e-01 1.00e+00w  1
 365r 2.0142689e+07 4.81e+04 5.19e+03  -2.0 1.21e+04    -  1.32e-03 1.36e-20f 67
 370r 2.0142689e+07 4.81e+04 5.06e+03  -2.0 1.20e+04    -  9.04e-04 2.71e-20f 66
 376r 2.0142689e+07 4.81e+04 4.97e+03  -2.0 1.21e+04    -  1.32e-03 1.36e-20f 67
 380r 2.0142689e+07 4.81e+04 4.86e+03  -2.0 1.21e+04    -  1.32e-03 1.36e-20f 67
 383r 2.0142689e+07 4.81e+04 4.79e+03  -2.0 1.20e+04    -  9.04e-04 2.71e-20f 66
 388r 2.0142689e+07 4.81e+04 4.73e+03  -2.0 9.08e+03    -  9.04e-04 2.71e-20f 65
 391r 2.0142689e+07 4.81e+04 4.65e+03  -2.0 1.21e+04    -  1.32e-03 1.36e-20f 67
 395r 2.0142689e+07 4.81e+04 4.54e+03  -2.0 1.21e+04    -  1.32e-03 1.36e-20f 67
 400r 1.6134428e+07 5.96e+04 1.94e+04  -2.0 7.09e+03    -  1.16e-01 1.00e+00w  1
iter    objective    inf_pr   inf_du lg(mu)  ||d||  lg(rg) alpha_du alpha_pr  ls
 404r 2.0142689e+07 4.81e+04 4.38e+03  -2.0 1.21e+04    -  1.32e-03 1.36e-20f 67
 408r 2.0142689e+07 4.81e+04 4.28e+03  -2.0 1.21e+04    -  1.32e-03 1.36e-20f 67
 414r 2.0142689e+07 4.81e+04 4.20e+03  -2.0 8.52e+03    -  9.04e-04 2.71e-20f 65
 418r 2.0142689e+07 4.81e+04 4.10e+03  -2.0 1.20e+04    -  9.04e-04 2.71e-20f 66
 422r 2.0142689e+07 4.81e+04 3.99e+03  -2.0 1.20e+04    -  9.04e-04 2.71e-20f 66
 428r 2.0142689e+07 4.81e+04 3.91e+03  -2.0 1.21e+04    -  1.32e-03 1.36e-20f 67
 432r 2.0142689e+07 4.81e+04 3.81e+03  -2.0 1.21e+04    -  1.32e-03 1.36e-20f 67
 436r 2.0142689e+07 4.81e+04 3.71e+03  -2.0 1.21e+04    -  1.32e-03 1.36e-20f 67
 442r 2.0142689e+07 4.81e+04 3.63e+03  -2.0 1.20e+04    -  9.04e-04 2.71e-20f 66
 446r 2.0142689e+07 4.81e+04 3.53e+03  -2.0 1.20e+04    -  9.04e-04 2.71e-20f 66
iter    objective    inf_pr   inf_du lg(mu)  ||d||  lg(rg) alpha_du alpha_pr  ls
 450r 1.6223223e+07 5.96e+04 2.38e+04  -2.0 1.20e+04    -  9.04e-04 1.00e+00w  1
 456r 2.0142689e+07 4.81e+04 3.35e+03  -2.0 1.21e+04    -  1.32e-03 1.36e-20f 67
 459r 2.0142689e+07 4.81e+04 3.28e+03  -2.0 1.20e+04    -  9.04e-04 2.71e-20f 66
 463r 1.6222540e+07 5.96e+04 2.36e+04  -2.0 1.20e+04    -  9.04e-04 1.00e+00w  1
 468r 2.0142689e+07 4.81e+04 3.13e+03  -2.0 1.20e+04    -  9.04e-04 2.71e-20f 66
 472r 2.0142689e+07 4.81e+04 3.03e+03  -2.0 1.20e+04    -  9.04e-04 2.71e-20f 66
 475r 2.0142689e+07 4.81e+04 2.95e+03  -2.0 1.21e+04    -  1.32e-03 1.36e-20f 67
 481r 2.0142689e+07 4.81e+04 2.88e+03  -2.0 1.20e+04    -  9.04e-04 2.71e-20f 66
 483r 2.0142689e+07 4.81e+04 2.83e+03  -2.0 1.20e+04    -  9.04e-04 2.71e-20f 66
 487r 2.0142689e+07 4.81e+04 2.73e+03  -2.0 1.20e+04    -  9.04e-04 2.71e-20f 66
iter    objective    inf_pr   inf_du lg(mu)  ||d||  lg(rg) alpha_du alpha_pr  ls
 493r 2.0142689e+07 4.81e+04 2.65e+03  -2.0 1.21e+04    -  1.32e-03 1.36e-20f 67
 497r 2.0142689e+07 4.81e+04 2.56e+03  -2.0 1.21e+04    -  1.32e-03 1.36e-20f 67
 501r 2.0142689e+07 4.81e+04 2.46e+03  -2.0 1.21e+04    -  1.32e-03 1.36e-20f 67
 507r 2.0142689e+07 4.81e+04 2.39e+03  -2.0 1.20e+04    -  9.04e-04 2.71e-20f 66
 511r 2.0142689e+07 4.81e+04 2.29e+03  -2.0 1.20e+04    -  9.04e-04 2.71e-20f 66
 515r 1.6219457e+07 5.96e+04 2.25e+04  -2.0 1.20e+04    -  9.04e-04 1.00e+00w  1
 520r 2.0142689e+07 4.81e+04 2.15e+03  -2.0 1.20e+04    -  9.04e-04 2.71e-20f 66
 525r 2.0142689e+07 4.81e+04 2.03e+03  -2.0 1.21e+04    -  1.32e-03 1.36e-20f 67
 531r 2.0142689e+07 4.81e+04 1.96e+03  -2.0 4.90e+03    -  9.04e-04 2.71e-20f 65
 535r 2.0142689e+07 4.81e+04 1.86e+03  -2.0 1.20e+04    -  9.04e-04 2.71e-20f 66
iter    objective    inf_pr   inf_du lg(mu)  ||d||  lg(rg) alpha_du alpha_pr  ls
 539r 2.0142689e+07 4.81e+04 1.77e+03  -2.0 1.20e+04    -  9.04e-04 2.71e-20f 66
 545r 2.0142689e+07 4.81e+04 1.70e+03  -2.0 1.21e+04    -  1.32e-03 1.36e-20f 67
 549r 2.0142689e+07 4.81e+04 1.60e+03  -2.0 1.21e+04    -  1.32e-03 1.36e-20f 67
 553r 2.0142689e+07 4.81e+04 1.51e+03  -2.0 1.21e+04    -  1.32e-03 1.36e-20f 67
 558r 2.0142689e+07 4.81e+04 1.46e+03  -2.0 1.21e+04    -  1.32e-03 1.36e-20f 67
 562r 2.0142689e+07 4.81e+04 1.37e+03  -2.0 1.21e+04    -  1.32e-03 1.36e-20f 67
 566r 2.0142689e+07 4.81e+04 1.28e+03  -2.0 1.21e+04    -  1.32e-03 1.36e-20f 67
 572r 2.0142689e+07 4.81e+04 1.21e+03  -2.0 1.20e+04    -  9.04e-04 2.71e-20f 66
 576r 2.0142689e+07 4.81e+04 1.12e+03  -2.0 1.20e+04    -  9.04e-04 2.71e-20f 66
 581r 1.6149310e+07 5.96e+04 1.96e+04  -2.0 7.70e+03    -  7.48e-02 1.00e+00w  1
iter    objective    inf_pr   inf_du lg(mu)  ||d||  lg(rg) alpha_du alpha_pr  ls
 585r 2.0142689e+07 4.81e+04 9.87e+02  -2.0 1.20e+04    -  9.04e-04 2.71e-20f 66
 589r 2.0142689e+07 4.81e+04 8.96e+02  -2.0 1.20e+04    -  9.04e-04 2.71e-20f 66
 595r 1.6019430e+07 5.96e+04 1.67e+04  -2.0 8.75e+03    -  1.10e-01 1.00e+00w  1
 599r 2.0142689e+07 4.81e+04 9.05e+02  -2.0 1.21e+04    -  1.32e-03 1.36e-20f 67
 603r 2.0142689e+07 4.81e+04 9.32e+02  -2.0 1.21e+04    -  1.32e-03 1.36e-20f 67
 609r 2.0142689e+07 4.81e+04 9.42e+02  -2.0 7.76e+03    -  9.04e-04 2.71e-20f 65
 612r 2.0142689e+07 4.81e+04 9.47e+02  -2.0 1.21e+04    -  1.32e-03 1.36e-20f 67
 616r 2.0142689e+07 4.81e+04 9.76e+02  -2.0 1.21e+04    -  1.32e-03 1.36e-20f 67
 622r 2.0142689e+07 4.81e+04 9.88e+02  -2.0 7.70e+03    -  9.04e-04 2.71e-20f 65
 626r 2.0142689e+07 4.81e+04 9.96e+02  -2.0 1.20e+04    -  9.04e-04 2.71e-20f 66
iter    objective    inf_pr   inf_du lg(mu)  ||d||  lg(rg) alpha_du alpha_pr  ls
 630r 2.0142689e+07 4.81e+04 9.99e+02  -2.0 1.20e+04    -  9.04e-04 2.71e-20f 66
 636r 2.0142689e+07 4.81e+04 9.99e+02  -2.0 1.21e+04    -  1.32e-03 1.36e-20f 67
 640r 2.0142689e+07 4.81e+04 1.00e+03  -2.0 1.21e+04    -  1.32e-03 1.36e-20f 67
 644r 2.0142689e+07 4.81e+04 1.04e+03  -2.0 1.21e+04    -  1.32e-03 1.36e-20f 67
 650r 2.0142689e+07 4.81e+04 1.10e+03  -2.0 1.20e+04    -  9.04e-04 2.71e-20f 66
 654r 2.0142689e+07 4.81e+04 1.19e+03  -2.0 1.20e+04    -  9.04e-04 2.71e-20f 66
 661r 2.0142689e+07 4.81e+04 1.27e+03  -2.0 6.98e+03    -  9.04e-04 2.71e-20f 65
 666r 2.0142689e+07 4.81e+04 1.37e+03  -2.0 1.21e+04    -  1.32e-03 1.36e-20f 67
 670r 2.0142689e+07 4.81e+04 1.39e+03  -2.0 1.22e+04    -  1.07e-03 1.36e-20f 67
 676r 2.0142689e+07 4.81e+04 1.39e+03  -2.0 1.16e+04    -  1.02e-03 2.71e-20f 66
iter    objective    inf_pr   inf_du lg(mu)  ||d||  lg(rg) alpha_du alpha_pr  ls
 680r 2.0142689e+07 4.81e+04 1.47e+03  -2.0 1.16e+04    -  1.03e-03 2.71e-20f 66
 684r 1.6154326e+07 5.96e+04 1.95e+04  -2.0 1.16e+04    -  1.03e-03 1.00e+00w  1
 689r 2.0142689e+07 4.81e+04 1.58e+03  -2.0 1.16e+04    -  1.03e-03 2.71e-20f 66
 693r 2.0142689e+07 4.81e+04 1.65e+03  -2.0 1.16e+04    -  1.03e-03 2.71e-20f 66
 698r 1.6070605e+07 5.96e+04 1.70e+04  -2.0 8.31e+03    -  9.78e-02 1.00e+00w  1
 703r 2.0142689e+07 4.81e+04 1.77e+03  -2.0 1.22e+04    -  9.78e-04 1.36e-20f 67
 707r 2.0142689e+07 4.81e+04 1.83e+03  -2.0 1.22e+04    -  9.78e-04 1.36e-20f 67
 713r 2.0142689e+07 4.81e+04 1.83e+03  -2.0 4.53e+03    -  1.03e-03 2.71e-20f 65
 717r 2.0142689e+07 4.81e+04 1.90e+03  -2.0 1.16e+04    -  1.03e-03 2.71e-20f 66
 721r 2.0142689e+07 4.81e+04 1.95e+03  -2.0 1.16e+04    -  1.03e-03 2.71e-20f 66
iter    objective    inf_pr   inf_du lg(mu)  ||d||  lg(rg) alpha_du alpha_pr  ls
 727r 2.0142689e+07 4.81e+04 1.99e+03  -2.0 1.22e+04    -  9.78e-04 1.36e-20f 67
 731r 2.0142689e+07 4.81e+04 2.02e+03  -2.0 1.22e+04    -  9.78e-04 1.36e-20f 67
 735r 2.0142689e+07 4.81e+04 2.08e+03  -2.0 1.22e+04    -  9.78e-04 1.36e-20f 67
 741r 2.0142689e+07 4.81e+04 2.11e+03  -2.0 1.16e+04    -  1.03e-03 2.71e-20f 66
 745r 2.0142689e+07 4.81e+04 2.15e+03  -2.0 1.16e+04    -  1.03e-03 2.71e-20f 66
 750r 1.6036474e+07 5.96e+04 1.66e+04  -2.0 6.70e+03    -  7.02e-02 1.00e+00w  1
 754r 2.0142689e+07 4.81e+04 2.23e+03  -2.0 1.16e+04    -  1.03e-03 2.71e-20f 66
 758r 2.0142689e+07 4.81e+04 2.29e+03  -2.0 1.16e+04    -  1.03e-03 2.71e-20f 66
 762r 1.6101633e+07 5.96e+04 1.83e+04  -2.0 1.16e+04    -  1.03e-03 1.00e+00w  1
 767r 2.0142689e+07 4.81e+04 2.40e+03  -2.0 1.16e+04    -  1.03e-03 2.71e-20f 66
iter    objective    inf_pr   inf_du lg(mu)  ||d||  lg(rg) alpha_du alpha_pr  ls
 770r 2.0142689e+07 4.81e+04 2.45e+03  -2.0 1.22e+04    -  9.78e-04 1.36e-20f 67
 774r 2.0142689e+07 4.81e+04 2.52e+03  -2.0 1.22e+04    -  9.78e-04 1.36e-20f 67
 780r 2.0142689e+07 4.81e+04 2.58e+03  -2.0 1.16e+04    -  1.03e-03 2.71e-20f 66
 783r 2.0142689e+07 4.81e+04 2.63e+03  -2.0 1.22e+04    -  9.78e-04 1.36e-20f 67
 787r 2.0142689e+07 4.81e+04 2.70e+03  -2.0 1.22e+04    -  9.78e-04 1.36e-20f 67
 793r 2.0142689e+07 4.81e+04 2.76e+03  -2.0 1.16e+04    -  1.03e-03 2.71e-20f 66
 797r 2.0142689e+07 4.81e+04 2.83e+03  -2.0 1.16e+04    -  1.03e-03 2.71e-20f 66
 800r 2.0142689e+07 4.81e+04 2.88e+03  -2.0 1.22e+04    -  9.78e-04 1.36e-20f 67
 806r 2.0142689e+07 4.81e+04 2.93e+03  -2.0 1.16e+04    -  1.03e-03 2.71e-20f 66
 810r 2.0142689e+07 4.81e+04 3.00e+03  -2.0 1.16e+04    -  1.03e-03 2.71e-20f 66
iter    objective    inf_pr   inf_du lg(mu)  ||d||  lg(rg) alpha_du alpha_pr  ls
 814r 1.6079943e+07 5.96e+04 1.74e+04  -2.0 1.16e+04    -  1.03e-03 1.00e+00w  1
 819r 2.0142689e+07 4.81e+04 3.10e+03  -2.0 1.16e+04    -  1.03e-03 2.71e-20f 66
 823r 2.0142689e+07 4.81e+04 3.17e+03  -2.0 1.16e+04    -  1.03e-03 2.71e-20f 66
 827r 1.6058403e+07 5.96e+04 1.72e+04  -2.0 1.16e+04    -  1.03e-03 1.00e+00w  1
 832r 2.0142689e+07 4.81e+04 3.27e+03  -2.0 1.16e+04    -  1.03e-03 2.71e-20f 66
 836r 2.0142689e+07 4.81e+04 3.33e+03  -2.0 1.16e+04    -  1.03e-03 2.71e-20f 66
 841r 1.5917192e+07 5.96e+04 1.58e+04  -2.0 7.68e+03    -  4.82e-02 1.00e+00w  1
 846r 2.0142689e+07 4.81e+04 3.44e+03  -2.0 1.19e+04    -  1.03e-03 2.71e-20f 66
 850r 2.0142689e+07 4.81e+04 3.50e+03  -2.0 1.16e+04    -  1.18e-03 2.71e-20f 66
 856r 2.0142689e+07 4.81e+04 3.54e+03  -2.0 2.52e+03    -  7.95e-04 2.71e-20f 65
iter    objective    inf_pr   inf_du lg(mu)  ||d||  lg(rg) alpha_du alpha_pr  ls
 860r 2.0142689e+07 4.81e+04 3.59e+03  -2.0 1.16e+04    -  7.93e-04 2.71e-20f 66
 864r 2.0142689e+07 4.81e+04 3.63e+03  -2.0 1.16e+04    -  7.93e-04 2.71e-20f 66
 870r 2.0142689e+07 4.81e+04 3.63e+03  -2.0 1.16e+04    -  8.55e-04 2.71e-20f 66
 874r 2.0142689e+07 4.81e+04 3.63e+03  -2.0 1.16e+04    -  8.55e-04 2.71e-20f 66
 878r 2.0142689e+07 4.81e+04 3.68e+03  -2.0 1.16e+04    -  8.55e-04 2.71e-20f 66
 884r 2.0142689e+07 4.81e+04 3.72e+03  -2.0 1.16e+04    -  7.93e-04 2.71e-20f 66
 888r 2.0142689e+07 4.81e+04 3.77e+03  -2.0 1.16e+04    -  7.93e-04 2.71e-20f 66
 893r 1.5873800e+07 5.96e+04 1.48e+04  -2.0 6.00e+03    -  7.46e-02 1.00e+00w  1
 898r 2.0142689e+07 4.81e+04 3.86e+03  -2.0 1.16e+04    -  8.55e-04 2.71e-20f 66
 902r 2.0142689e+07 4.81e+04 3.91e+03  -2.0 1.16e+04    -  8.55e-04 2.71e-20f 66
iter    objective    inf_pr   inf_du lg(mu)  ||d||  lg(rg) alpha_du alpha_pr  ls
 908r 2.0142689e+07 4.81e+04 3.95e+03  -2.0 3.88e+03    -  7.93e-04 2.71e-20f 65
 912r 2.0142689e+07 4.81e+04 3.99e+03  -2.0 1.16e+04    -  7.93e-04 2.71e-20f 66
 916r 2.0142689e+07 4.81e+04 4.04e+03  -2.0 1.16e+04    -  7.93e-04 2.71e-20f 66
 922r 2.0142689e+07 4.81e+04 4.08e+03  -2.0 1.16e+04    -  8.55e-04 2.71e-20f 66
 925r 2.0142689e+07 4.81e+04 4.12e+03  -2.0 1.16e+04    -  7.93e-04 2.71e-20f 66
 929r 2.0142689e+07 4.81e+04 4.17e+03  -2.0 1.16e+04    -  7.93e-04 2.71e-20f 66
 935r 2.0142689e+07 4.81e+04 4.20e+03  -2.0 1.16e+04    -  8.55e-04 2.71e-20f 66
 938r 2.0142689e+07 4.81e+04 4.24e+03  -2.0 1.16e+04    -  7.93e-04 2.71e-20f 66
 942r 2.0142689e+07 4.81e+04 4.29e+03  -2.0 1.16e+04    -  7.93e-04 2.71e-20f 66
 948r 2.0142689e+07 4.81e+04 4.33e+03  -2.0 1.16e+04    -  8.55e-04 2.71e-20f 66
iter    objective    inf_pr   inf_du lg(mu)  ||d||  lg(rg) alpha_du alpha_pr  ls
 951r 2.0142689e+07 4.81e+04 4.37e+03  -2.0 1.16e+04    -  7.93e-04 2.71e-20f 66
 954r 2.0142689e+07 4.81e+04 4.41e+03  -2.0 1.16e+04    -  8.55e-04 2.71e-20f 66
 960r 2.0142689e+07 4.81e+04 4.45e+03  -2.0 5.40e+03    -  7.93e-04 2.71e-20f 65
 964r 2.0142689e+07 4.81e+04 4.50e+03  -2.0 1.16e+04    -  7.93e-04 2.71e-20f 66
 968r 2.0142689e+07 4.81e+04 4.55e+03  -2.0 1.16e+04    -  7.93e-04 2.71e-20f 66
 973r 2.0142689e+07 4.81e+04 4.57e+03  -2.0 5.45e+03    -  7.93e-04 2.71e-20f 65
 976r 2.0142689e+07 4.81e+04 4.61e+03  -2.0 1.16e+04    -  8.55e-04 2.71e-20f 66
 980r 2.0142689e+07 4.81e+04 4.66e+03  -2.0 1.16e+04    -  8.55e-04 2.71e-20f 66
 984r 1.5819670e+07 5.96e+04 1.41e+04  -2.0 5.72e+03    -  6.44e-02 1.00e+00w  1
 989r 2.0142689e+07 4.81e+04 4.73e+03  -2.0 1.16e+04    -  8.55e-04 2.71e-20f 66
iter    objective    inf_pr   inf_du lg(mu)  ||d||  lg(rg) alpha_du alpha_pr  ls
 992r 2.0142689e+07 4.81e+04 4.77e+03  -2.0 1.16e+04    -  7.93e-04 2.71e-20f 66
 996r 1.5888074e+07 5.96e+04 1.50e+04  -2.0 1.16e+04    -  7.93e-04 1.00e+00w  1
1001r 2.0142689e+07 4.81e+04 4.84e+03  -2.0 1.16e+04    -  7.93e-04 2.71e-20f 66
1004r 2.0142689e+07 4.81e+04 4.87e+03  -2.0 1.16e+04    -  8.55e-04 2.71e-20f 66
1008r 2.0142689e+07 4.81e+04 4.91e+03  -2.0 1.16e+04    -  8.55e-04 2.71e-20f 66
1013r 2.0142689e+07 4.81e+04 4.92e+03  -2.0 1.16e+04    -  8.55e-04 2.71e-20f 66
1017r 2.0142689e+07 4.81e+04 4.92e+03  -2.0 1.16e+04    -  8.55e-04 2.71e-20f 66
1021r 2.0142689e+07 4.81e+04 4.92e+03  -2.0 1.16e+04    -  8.55e-04 2.71e-20f 66
1027r 2.0142689e+07 4.81e+04 4.92e+03  -2.0 1.16e+04    -  7.93e-04 2.71e-20f 66
1031r 2.0142689e+07 4.81e+04 4.94e+03  -2.0 1.16e+04    -  7.93e-04 2.71e-20f 66
iter    objective    inf_pr   inf_du lg(mu)  ||d||  lg(rg) alpha_du alpha_pr  ls
1035r 1.5877849e+07 5.96e+04 1.46e+04  -2.0 1.16e+04    -  7.93e-04 1.00e+00w  1
1039r 2.0142689e+07 4.81e+04 5.00e+03  -2.0 1.16e+04    -  8.55e-04 2.71e-20f 66
1042r 2.0142689e+07 4.81e+04 5.03e+03  -2.0 1.16e+04    -  7.93e-04 2.71e-20f 66
1046r 2.0142689e+07 4.81e+04 5.07e+03  -2.0 1.16e+04    -  7.93e-04 2.71e-20f 66
1052r 2.0142689e+07 4.81e+04 5.10e+03  -2.0 1.16e+04    -  8.55e-04 2.71e-20f 66
1056r 2.0142689e+07 4.81e+04 5.14e+03  -2.0 1.16e+04    -  8.55e-04 2.71e-20f 66
1060r 2.0142689e+07 4.81e+04 5.18e+03  -2.0 1.16e+04    -  8.55e-04 2.71e-20f 66
1065r 2.0142689e+07 4.81e+04 5.20e+03  -2.0 1.16e+04    -  8.55e-04 2.71e-20f 66
1068r 2.0142689e+07 4.81e+04 5.23e+03  -2.0 1.16e+04    -  7.93e-04 2.71e-20f 66
1071r 2.0142689e+07 4.81e+04 5.26e+03  -2.0 1.16e+04    -  8.55e-04 2.71e-20f 66
iter    objective    inf_pr   inf_du lg(mu)  ||d||  lg(rg) alpha_du alpha_pr  ls
1076r 1.5723406e+07 5.96e+04 1.13e+04  -2.0 4.83e+03    -  1.01e-02 1.00e+00w  1
1080r 2.0142689e+07 4.81e+04 5.31e+03  -2.0 1.16e+04    -  8.55e-04 2.71e-20f 66
1084r 2.0142689e+07 4.81e+04 5.35e+03  -2.0 1.16e+04    -  8.55e-04 2.71e-20f 66
1089r 1.5721956e+07 5.96e+04 1.12e+04  -2.0 4.95e+03    -  1.08e-02 1.00e+00w  1
1093r 2.0142689e+07 4.81e+04 5.39e+03  -2.0 1.16e+04    -  8.55e-04 2.71e-20f 66
1097r 2.0142689e+07 4.81e+04 5.42e+03  -2.0 1.16e+04    -  8.55e-04 2.71e-20f 66
1102r 1.5720468e+07 5.96e+04 1.12e+04  -2.0 5.06e+03    -  1.16e-02 1.00e+00w  1
1106r 2.0142689e+07 4.81e+04 5.45e+03  -2.0 1.16e+04    -  8.55e-04 2.71e-20f 66
1109r 2.0142689e+07 4.81e+04 5.46e+03  -2.0 1.16e+04    -  7.93e-04 2.71e-20f 66
1112r 2.0142689e+07 4.81e+04 5.48e+03  -2.0 1.16e+04    -  8.55e-04 2.71e-20f 66
iter    objective    inf_pr   inf_du lg(mu)  ||d||  lg(rg) alpha_du alpha_pr  ls
1118r 2.0142689e+07 4.81e+04 5.49e+03  -2.0 1.16e+04    -  7.93e-04 2.71e-20f 66
1121r 2.0142689e+07 4.81e+04 5.52e+03  -2.0 1.16e+04    -  8.55e-04 2.71e-20f 66
1125r 2.0142689e+07 4.81e+04 5.57e+03  -2.0 1.16e+04    -  8.55e-04 2.71e-20f 66
1130r 2.0142689e+07 4.81e+04 5.59e+03  -2.0 1.16e+04    -  8.55e-04 2.71e-20f 66
1134r 2.0142689e+07 4.81e+04 5.63e+03  -2.0 1.16e+04    -  8.55e-04 2.71e-20f 66
1137r 2.0142689e+07 4.81e+04 5.67e+03  -2.0 1.16e+04    -  7.93e-04 2.71e-20f 66
1142r 2.0142689e+07 4.81e+04 5.69e+03  -2.0 3.39e+03    -  7.93e-04 2.71e-20f 65
1145r 2.0142689e+07 4.81e+04 5.72e+03  -2.0 1.16e+04    -  8.55e-04 2.71e-20f 66
1148r 2.0142689e+07 4.81e+04 5.76e+03  -2.0 1.16e+04    -  7.93e-04 2.71e-20f 66
1152r 1.5854527e+07 5.96e+04 1.36e+04  -2.0 1.16e+04    -  7.93e-04 1.00e+00w  1
iter    objective    inf_pr   inf_du lg(mu)  ||d||  lg(rg) alpha_du alpha_pr  ls
1157r 2.0142689e+07 4.81e+04 5.82e+03  -2.0 1.16e+04    -  7.93e-04 2.71e-20f 66
1160r 2.0142689e+07 4.81e+04 5.86e+03  -2.0 1.16e+04    -  8.55e-04 2.71e-20f 66
1163r 2.0142689e+07 4.81e+04 5.89e+03  -2.0 1.16e+04    -  7.93e-04 2.71e-20f 66
1168r 2.0142689e+07 4.81e+04 5.91e+03  -2.0 3.30e+03    -  7.93e-04 2.71e-20f 65
1172r 2.0142689e+07 4.81e+04 5.96e+03  -2.0 1.16e+04    -  7.93e-04 2.71e-20f 66
1175r 2.0142689e+07 4.81e+04 5.99e+03  -2.0 1.16e+04    -  8.55e-04 2.71e-20f 66
1180r 1.5710715e+07 5.96e+04 1.11e+04  -2.0 5.58e+03    -  2.10e-02 1.00e+00w  1
1184r 2.0142689e+07 4.81e+04 6.06e+03  -2.0 1.16e+04    -  8.55e-04 2.71e-20f 66
1187r 2.0142689e+07 4.81e+04 6.09e+03  -2.0 1.16e+04    -  7.93e-04 2.71e-20f 66
1190r 2.0142689e+07 4.81e+04 6.12e+03  -2.0 1.16e+04    -  8.55e-04 2.71e-20f 66
iter    objective    inf_pr   inf_du lg(mu)  ||d||  lg(rg) alpha_du alpha_pr  ls
1195r 2.0142689e+07 4.81e+04 6.14e+03  -2.0 1.16e+04    -  8.55e-04 2.71e-20f 66
1198r 2.0142689e+07 4.81e+04 6.18e+03  -2.0 1.16e+04    -  7.93e-04 2.71e-20f 66
1201r 2.0142689e+07 4.81e+04 6.21e+03  -2.0 1.16e+04    -  8.55e-04 2.71e-20f 66
1206r 1.5707103e+07 5.96e+04 1.10e+04  -2.0 5.67e+03    -  2.61e-02 1.00e+00w  1
1209r 2.0142689e+07 4.81e+04 6.26e+03  -2.0 1.16e+04    -  7.93e-04 2.71e-20f 66
1212r 2.0142689e+07 4.81e+04 6.29e+03  -2.0 1.16e+04    -  8.55e-04 2.71e-20f 66
1216r 2.0142689e+07 4.81e+04 6.34e+03  -2.0 1.16e+04    -  8.55e-04 2.71e-20f 66
1221r 2.0142689e+07 4.81e+04 6.36e+03  -2.0 1.16e+04    -  8.55e-04 2.71e-20f 66
1224r 2.0142689e+07 4.81e+04 6.39e+03  -2.0 1.16e+04    -  7.93e-04 2.71e-20f 66
1228r 2.0142689e+07 4.81e+04 6.43e+03  -2.0 1.16e+04    -  7.93e-04 2.71e-20f 66
iter    objective    inf_pr   inf_du lg(mu)  ||d||  lg(rg) alpha_du alpha_pr  ls
1234r 2.0142689e+07 4.81e+04 6.47e+03  -2.0 1.16e+04    -  8.55e-04 2.71e-20f 66
1238r 2.0142689e+07 4.81e+04 6.51e+03  -2.0 1.16e+04    -  8.55e-04 2.71e-20f 66
1242r 2.0142689e+07 4.81e+04 6.55e+03  -2.0 1.16e+04    -  8.55e-04 2.71e-20f 66
1248r 2.0142689e+07 4.81e+04 6.58e+03  -2.0 1.16e+04    -  7.93e-04 2.71e-20f 66
1252r 2.0142689e+07 4.81e+04 6.62e+03  -2.0 1.16e+04    -  7.93e-04 2.71e-20f 66
1255r 2.0142689e+07 4.81e+04 6.66e+03  -2.0 1.16e+04    -  8.55e-04 2.71e-20f 66
1260r 2.0142689e+07 4.81e+04 6.68e+03  -2.0 1.16e+04    -  8.55e-04 2.71e-20f 66
1264r 2.0142689e+07 4.81e+04 6.72e+03  -2.0 1.16e+04    -  8.55e-04 2.71e-20f 66
1268r 2.0142689e+07 4.81e+04 6.76e+03  -2.0 1.16e+04    -  8.55e-04 2.71e-20f 66
1273r 2.0142689e+07 4.81e+04 6.78e+03  -2.0 1.16e+04    -  8.55e-04 2.71e-20f 66
iter    objective    inf_pr   inf_du lg(mu)  ||d||  lg(rg) alpha_du alpha_pr  ls
1276r 2.0142689e+07 4.81e+04 6.81e+03  -2.0 1.16e+04    -  7.93e-04 2.71e-20f 66
1279r 2.0142689e+07 4.81e+04 6.84e+03  -2.0 1.16e+04    -  8.55e-04 2.71e-20f 66
1284r 1.5694733e+07 5.96e+04 1.05e+04  -2.0 5.51e+03    -  7.11e-02 1.00e+00w  1
1288r 2.0142689e+07 4.81e+04 6.90e+03  -2.0 1.16e+04    -  8.55e-04 2.71e-20f 66
1291r 2.0142689e+07 4.81e+04 6.93e+03  -2.0 1.16e+04    -  7.93e-04 2.71e-20f 66
1295r 1.5821007e+07 5.96e+04 1.24e+04  -2.0 1.16e+04    -  7.93e-04 1.00e+00w  1
1300r 2.0142689e+07 4.81e+04 6.99e+03  -2.0 1.16e+04    -  7.93e-04 2.71e-20f 66
1303r 2.0142689e+07 4.81e+04 7.02e+03  -2.0 1.16e+04    -  8.55e-04 2.71e-20f 66
1307r 2.0142689e+07 4.81e+04 7.07e+03  -2.0 1.16e+04    -  8.55e-04 2.71e-20f 66
1313r 2.0142689e+07 4.81e+04 7.10e+03  -2.0 1.16e+04    -  7.93e-04 2.71e-20f 66
iter    objective    inf_pr   inf_du lg(mu)  ||d||  lg(rg) alpha_du alpha_pr  ls
1317r 2.0142689e+07 4.81e+04 7.14e+03  -2.0 1.16e+04    -  7.93e-04 2.71e-20f 66
1322r 1.5740502e+07 5.96e+04 1.13e+04  -2.0 3.92e+03    -  3.23e-02 1.00e+00w  1
1326r 2.0142689e+07 4.81e+04 7.20e+03  -2.0 1.16e+04    -  7.93e-04 2.71e-20f 66
1330r 2.0142689e+07 4.81e+04 7.23e+03  -2.0 1.16e+04    -  7.93e-04 2.71e-20f 66
1333r 2.0142689e+07 4.81e+04 7.26e+03  -2.0 1.16e+04    -  8.55e-04 2.71e-20f 66
1338r 2.0142689e+07 4.81e+04 7.28e+03  -2.0 1.16e+04    -  8.55e-04 2.71e-20f 66
1341r 2.0142689e+07 4.81e+04 7.31e+03  -2.0 1.16e+04    -  7.93e-04 2.71e-20f 66
1345r 2.0142689e+07 4.81e+04 7.35e+03  -2.0 1.16e+04    -  7.93e-04 2.71e-20f 66
1350r 2.0142689e+07 4.81e+04 7.37e+03  -2.0 3.61e+03    -  7.93e-04 2.71e-20f 65
1353r 2.0142689e+07 4.81e+04 7.40e+03  -2.0 1.16e+04    -  8.55e-04 2.71e-20f 66
iter    objective    inf_pr   inf_du lg(mu)  ||d||  lg(rg) alpha_du alpha_pr  ls
1356r 2.0142689e+07 4.81e+04 7.43e+03  -2.0 1.16e+04    -  7.93e-04 2.71e-20f 66
1359r 2.0142689e+07 4.81e+04 7.46e+03  -2.0 1.16e+04    -  8.55e-04 2.71e-20f 66
1364r 2.0142689e+07 4.81e+04 7.48e+03  -2.0 1.16e+04    -  8.55e-04 2.71e-20f 66
1367r 2.0142689e+07 4.81e+04 7.50e+03  -2.0 1.26e+04    -  7.93e-04 2.71e-20f 66
1370r 2.0142689e+07 4.81e+04 7.53e+03  -2.0 1.94e+04    -  8.55e-04 2.71e-20f 66
1373r 1.5794762e+07 5.96e+04 1.16e+04  -2.0 1.16e+04    -  8.17e-04 1.00e+00w  1
1377r 2.0142689e+07 4.81e+04 7.52e+03  -2.0 2.15e+04    -  8.47e-04 2.71e-20f 66
1380r 2.0142689e+07 4.81e+04 7.55e+03  -2.0 1.16e+04    -  7.07e-04 2.71e-20f 66
1384r 2.0142689e+07 4.81e+04 7.58e+03  -2.0 1.16e+04    -  7.40e-04 2.71e-20f 66
1390r 2.0142689e+07 4.81e+04 7.61e+03  -2.0 2.79e+04    -  8.93e-04 2.71e-20f 66
iter    objective    inf_pr   inf_du lg(mu)  ||d||  lg(rg) alpha_du alpha_pr  ls
1393r 2.0142689e+07 4.81e+04 7.64e+03  -2.0 2.25e+04    -  8.04e-04 2.71e-20f 66
1396r 2.0142689e+07 4.81e+04 7.67e+03  -2.0 2.82e+04    -  8.85e-04 2.71e-20f 66
1402r 2.0142689e+07 4.81e+04 7.70e+03  -2.0 3.01e+03    -  8.16e-04 2.71e-20f 65
1405r 2.0142689e+07 4.81e+04 7.73e+03  -2.0 2.82e+04    -  8.83e-04 2.71e-20f 66
1408r 2.0142689e+07 4.81e+04 7.75e+03  -2.0 1.16e+04    -  7.29e-04 2.71e-20f 66
1411r 2.0142689e+07 4.81e+04 7.78e+03  -2.0 2.78e+04    -  8.93e-04 2.71e-20f 66
1416r 2.0142689e+07 4.81e+04 7.80e+03  -2.0 1.16e+04    -  8.36e-04 2.71e-20f 66
1419r 2.0142689e+07 4.81e+04 7.83e+03  -2.0 1.16e+04    -  7.21e-04 2.71e-20f 66
1422r 2.0142689e+07 4.81e+04 7.85e+03  -2.0 1.16e+04    -  8.51e-04 2.71e-20f 66
1427r 1.5652285e+07 5.96e+04 9.03e+03  -2.0 4.53e+03    -  1.16e-01 1.00e+00w  1
iter    objective    inf_pr   inf_du lg(mu)  ||d||  lg(rg) alpha_du alpha_pr  ls
1431r 2.0142689e+07 4.81e+04 7.91e+03  -2.0 1.16e+04    -  8.78e-04 2.71e-20f 66
1434r 2.0142689e+07 4.81e+04 7.94e+03  -2.0 1.50e+04    -  7.93e-04 2.71e-20f 66
1437r 2.0142689e+07 4.81e+04 7.96e+03  -2.0 2.73e+04    -  8.78e-04 2.71e-20f 66
1442r 2.0142689e+07 4.81e+04 7.98e+03  -2.0 1.16e+04    -  7.62e-04 2.71e-20f 66
1445r 2.0142689e+07 4.81e+04 8.01e+03  -2.0 1.16e+04    -  7.87e-04 2.71e-20f 66
1448r 2.0142689e+07 4.81e+04 8.03e+03  -2.0 1.16e+04    -  7.07e-04 2.71e-20f 66
1452r 1.5695505e+07 5.96e+04 1.02e+04  -2.0 5.33e+03    -  4.88e-02 1.00e+00w  1
1456r 2.0142689e+07 4.81e+04 8.07e+03  -2.0 1.16e+04    -  7.93e-04 2.71e-20f 66
1460r 2.0142689e+07 4.81e+04 8.10e+03  -2.0 2.80e+04    -  8.29e-04 2.71e-20f 66
1463r 2.0142689e+07 4.81e+04 8.11e+03  -2.0 1.16e+04    -  8.48e-04 2.71e-20f 66
iter    objective    inf_pr   inf_du lg(mu)  ||d||  lg(rg) alpha_du alpha_pr  ls
1468r 2.0142689e+07 4.81e+04 8.11e+03  -2.0 1.16e+04    -  8.58e-04 2.71e-20f 66
1471r 2.0142689e+07 4.81e+04 8.12e+03  -2.0 1.93e+04    -  7.93e-04 2.71e-20f 66
1474r 2.0142689e+07 4.81e+04 8.14e+03  -2.0 1.16e+04    -  7.28e-04 2.71e-20f 66
1479r 1.5639789e+07 5.96e+04 8.73e+03  -2.0 3.30e+03    -  1.29e-01 1.00e+00w  1
1483r 2.0142689e+07 4.81e+04 8.20e+03  -2.0 1.16e+04    -  8.54e-04 2.71e-20f 66
1486r 2.0142689e+07 4.81e+04 8.22e+03  -2.0 1.16e+04    -  7.63e-04 2.71e-20f 66
1490r 1.5735653e+07 5.96e+04 1.06e+04  -2.0 1.16e+04    -  7.08e-04 1.00e+00w  1
1495r 2.0142689e+07 4.81e+04 8.28e+03  -2.0 2.25e+04    -  8.87e-04 2.71e-20f 66
1498r 2.0142689e+07 4.81e+04 8.30e+03  -2.0 1.16e+04    -  8.55e-04 2.71e-20f 66
1502r 2.0142689e+07 4.81e+04 8.34e+03  -2.0 2.84e+04    -  8.64e-04 2.71e-20f 66
iter    objective    inf_pr   inf_du lg(mu)  ||d||  lg(rg) alpha_du alpha_pr  ls
1507r 2.0142689e+07 4.81e+04 8.35e+03  -2.0 1.16e+04    -  7.77e-04 2.71e-20f 66
1510r 2.0142689e+07 4.81e+04 8.38e+03  -2.0 1.16e+04    -  7.13e-04 2.71e-20f 66
1514r 2.0142689e+07 4.81e+04 8.41e+03  -2.0 2.18e+04    -  8.11e-04 2.71e-20f 66
1519r 2.0142689e+07 4.81e+04 8.42e+03  -2.0 2.03e+03    -  7.15e-04 2.71e-20f 65
1522r 2.0142689e+07 4.81e+04 8.44e+03  -2.0 1.16e+04    -  8.39e-04 2.71e-20f 66
1525r 2.0142689e+07 4.81e+04 8.46e+03  -2.0 1.16e+04    -  7.07e-04 2.71e-20f 66
1529r 1.5708054e+07 5.96e+04 2.41e+04  -2.0 1.83e+04    -  7.94e-04 1.00e+00w  1
1534r 2.0142689e+07 4.81e+04 8.51e+03  -2.0 1.16e+04    -  7.19e-04 2.71e-20f 66
1538r 2.0142689e+07 4.81e+04 8.54e+03  -2.0 1.16e+04    -  7.87e-04 2.71e-20f 66
1542r 1.5724137e+07 5.96e+04 1.11e+04  -2.0 1.16e+04    -  7.92e-04 1.00e+00w  1
iter    objective    inf_pr   inf_du lg(mu)  ||d||  lg(rg) alpha_du alpha_pr  ls
1546r 2.0142689e+07 4.81e+04 8.59e+03  -2.0 1.16e+04    -  8.53e-04 2.71e-20f 66
1550r 2.0142689e+07 4.81e+04 8.62e+03  -2.0 2.25e+04    -  7.21e-04 2.71e-20f 66
1553r 2.0142689e+07 4.81e+04 8.65e+03  -2.0 1.16e+04    -  7.31e-04 2.71e-20f 66
1558r 2.0142689e+07 4.81e+04 8.66e+03  -2.0 2.13e+03    -  8.36e-04 2.71e-20f 65
1562r 2.0142689e+07 4.81e+04 8.70e+03  -2.0 1.99e+04    -  7.93e-04 2.71e-20f 66
1565r 2.0142689e+07 4.81e+04 8.72e+03  -2.0 1.16e+04    -  7.56e-04 2.71e-20f 66
1570r 1.5604376e+07 5.96e+04 7.98e+03  -2.0 4.10e+03    -  1.11e-01 1.00e+00w  1
1574r 2.0142689e+07 4.81e+04 8.77e+03  -2.0 2.68e+04    -  8.56e-04 2.71e-20f 66
1576r 2.0142689e+07 4.81e+04 8.79e+03  -2.0 1.16e+04    -  8.54e-04 2.71e-20f 66
1579r 2.0142689e+07 4.81e+04 8.81e+03  -2.0 1.16e+04    -  8.32e-04 2.71e-20f 66
iter    objective    inf_pr   inf_du lg(mu)  ||d||  lg(rg) alpha_du alpha_pr  ls
1584r 2.0142689e+07 4.81e+04 8.83e+03  -2.0 2.22e+03    -  7.94e-04 2.71e-20f 65
1587r 2.0142689e+07 4.81e+04 8.85e+03  -2.0 1.16e+04    -  9.08e-04 2.71e-20f 66
1590r 2.0142689e+07 4.81e+04 8.88e+03  -2.0 1.16e+04    -  8.55e-04 2.71e-20f 66
1593r 2.0142689e+07 4.81e+04 8.90e+03  -2.0 1.16e+04    -  9.79e-04 2.71e-20f 66
1599r 2.0142689e+07 4.81e+04 8.92e+03  -2.0 1.39e+04    -  8.12e-04 2.71e-20f 66
1603r 2.0142689e+07 4.81e+04 8.96e+03  -2.0 1.16e+04    -  7.06e-04 2.71e-20f 66
1606r 2.0142689e+07 4.81e+04 8.98e+03  -2.0 1.16e+04    -  8.37e-04 2.71e-20f 66
1611r 2.0142689e+07 4.81e+04 9.00e+03  -2.0 1.16e+04    -  8.55e-04 2.71e-20f 66
1614r 2.0142689e+07 4.81e+04 9.02e+03  -2.0 1.16e+04    -  8.44e-04 2.71e-20f 66
1618r 2.0142689e+07 4.81e+04 9.05e+03  -2.0 1.16e+04    -  7.09e-04 2.71e-20f 66
iter    objective    inf_pr   inf_du lg(mu)  ||d||  lg(rg) alpha_du alpha_pr  ls
1623r 2.0142689e+07 4.81e+04 9.07e+03  -2.0 2.75e+03    -  8.63e-04 2.71e-20f 65
1626r 2.0142689e+07 4.81e+04 9.09e+03  -2.0 1.16e+04    -  9.09e-04 2.71e-20f 66
1629r 2.0142689e+07 4.81e+04 9.11e+03  -2.0 1.16e+04    -  8.21e-04 2.71e-20f 66
1632r 2.0142689e+07 4.81e+04 9.14e+03  -2.0 1.16e+04    -  9.63e-04 2.71e-20f 66
1637r 2.0142689e+07 4.81e+04 9.15e+03  -2.0 2.82e+04    -  8.86e-04 2.71e-20f 66
1641r 2.0142689e+07 4.81e+04 9.18e+03  -2.0 2.19e+04    -  8.75e-04 2.71e-20f 66
1644r 2.0142689e+07 4.81e+04 9.20e+03  -2.0 1.16e+04    -  8.60e-04 2.71e-20f 66
1649r 2.0142689e+07 4.81e+04 9.22e+03  -2.0 3.27e+03    -  7.94e-04 2.71e-20f 65
1652r 2.0142689e+07 4.81e+04 9.24e+03  -2.0 2.81e+04    -  8.89e-04 2.71e-20f 66
1655r 2.0142689e+07 4.81e+04 9.26e+03  -2.0 1.16e+04    -  7.94e-04 2.71e-20f 66
iter    objective    inf_pr   inf_du lg(mu)  ||d||  lg(rg) alpha_du alpha_pr  ls
1658r 2.0142689e+07 4.81e+04 9.28e+03  -2.0 2.79e+04    -  8.94e-04 2.71e-20f 66
1663r 2.0142689e+07 4.81e+04 9.29e+03  -2.0 1.16e+04    -  8.38e-04 2.71e-20f 66
1666r 2.0142689e+07 4.81e+04 9.31e+03  -2.0 1.16e+04    -  7.09e-04 2.71e-20f 66
1669r 2.0142689e+07 4.81e+04 9.34e+03  -2.0 1.16e+04    -  8.39e-04 2.71e-20f 66
1673r 1.5620750e+07 5.96e+04 8.75e+03  -2.0 1.62e+04    -  5.72e-02 1.00e+00w  1
1677r 2.0142689e+07 4.81e+04 9.37e+03  -2.0 1.16e+04    -  7.92e-04 2.71e-20f 66
1680r 2.0142689e+07 4.81e+04 9.38e+03  -2.0 1.16e+04    -  1.00e-03 2.71e-20f 66
1683r 2.0142689e+07 4.81e+04 9.40e+03  -2.0 2.72e+04    -  7.93e-04 2.71e-20f 66
1689r 2.0142689e+07 4.81e+04 9.42e+03  -2.0 1.46e+04    -  8.55e-04 2.71e-20f 66
1693r 2.0142689e+07 4.81e+04 9.45e+03  -2.0 1.16e+04    -  8.55e-04 2.71e-20f 66
iter    objective    inf_pr   inf_du lg(mu)  ||d||  lg(rg) alpha_du alpha_pr  ls
1696r 2.0142689e+07 4.81e+04 9.47e+03  -2.0 2.19e+04    -  7.59e-04 2.71e-20f 66
1701r 2.0142689e+07 4.81e+04 9.49e+03  -2.0 3.07e+03    -  7.91e-04 2.71e-20f 65
1704r 2.0142689e+07 4.81e+04 9.51e+03  -2.0 1.16e+04    -  9.55e-04 2.71e-20f 66
1708r 2.0142689e+07 4.81e+04 9.54e+03  -2.0 1.24e+04    -  8.54e-04 2.71e-20f 66
1713r 1.5589106e+07 5.96e+04 7.02e+03  -2.0 2.49e+03    -  1.53e-01 1.00e+00w  1
1717r 2.0142689e+07 4.81e+04 9.59e+03  -2.0 1.16e+04    -  8.53e-04 2.71e-20f 66
1721r 2.0142689e+07 4.81e+04 9.61e+03  -2.0 2.24e+04    -  7.75e-04 2.71e-20f 66
1726r 1.5587156e+07 5.96e+04 6.99e+03  -2.0 2.56e+03    -  1.35e-01 1.00e+00w  1
1729r 2.0142689e+07 4.81e+04 9.65e+03  -2.0 1.16e+04    -  7.93e-04 2.71e-20f 66

